decision_x1=[0,2];
decision_x2=[0,2];
decision_x3=[0,2];
decision_x4=[0,2];
decision_x5=[0,2];
decision_x6=[0,2];
decision_x7=[0,2];
decision_x8=[0,2];
decision_x9=[0,2];
decision_x10=[0,2];
decision_x11=[0,2];
decision_x12=[0,2];
random_y1=[0,2];
random_y2=[0,2];
random_y3=[0,2];
random_y4=[0,2];
random_y5=[0,2];
random_y6=[0,2];
random_y7=[0,2];
random_y8=[0,2];
random_y9=[0,2];
random_y10=[0,2];
random_y11=[0,2];
random_y12=[0,2];
constraint_x3_x1=[
0,0,99|
0,1,81|
0,2,80|
1,0,16|
1,1,41|
1,2,12|
2,0,67|
2,1,33|
2,2,82|
];
constraint_x3_x2=[
0,0,44|
0,1,1.1|
0,2,72|
1,0,54|
1,1,19|
1,2,71|
2,0,88|
2,1,27|
2,2,62|
];
constraint_x4_x1=[
0,0,52|
0,1,66|
0,2,5.1|
1,0,82|
1,1,79|
1,2,25|
2,0,67|
2,1,86|
2,2,19|
];
constraint_x5_x3=[
0,0,81|
0,1,49|
0,2,48|
1,0,13|
1,1,84|
1,2,88|
2,0,54|
2,1,6.2|
2,2,85|
];
constraint_x6_x1=[
0,0,99|
0,1,27|
0,2,44|
1,0,73|
1,1,85|
1,2,88|
2,0,50|
2,1,78|
2,2,38|
];
constraint_x6_x3=[
0,0,46|
0,1,43|
0,2,11|
1,0,94|
1,1,78|
1,2,14|
2,0,26|
2,1,87|
2,2,86|
];
constraint_x6_x4=[
0,0,95|
0,1,51|
0,2,16|
1,0,5.7|
1,1,73|
1,2,10|
2,0,19|
2,1,80|
2,2,58|
];
constraint_x7_x4=[
0,0,38|
0,1,55|
0,2,8.3|
1,0,99|
1,1,66|
1,2,17|
2,0,5.2|
2,1,19|
2,2,94|
];
constraint_x7_x6=[
0,0,87|
0,1,38|
0,2,14|
1,0,60|
1,1,2.3|
1,2,4.9|
2,0,94|
2,1,1.5|
2,2,62|
];
constraint_x8_x2=[
0,0,60|
0,1,34|
0,2,37|
1,0,34|
1,1,90|
1,2,9.3|
2,0,62|
2,1,87|
2,2,53|
];
constraint_x8_x5=[
0,0,82|
0,1,37|
0,2,77|
1,0,59|
1,1,96|
1,2,40|
2,0,23|
2,1,35|
2,2,95|
];
constraint_x8_x6=[
0,0,40|
0,1,53|
0,2,94|
1,0,70|
1,1,53|
1,2,14|
2,0,9.5|
2,1,78|
2,2,67|
];
constraint_x9_x1=[
0,0,83|
0,1,35|
0,2,36|
1,0,38|
1,1,85|
1,2,32|
2,0,64|
2,1,26|
2,2,1.9|
];
constraint_x9_x2=[
0,0,42|
0,1,84|
0,2,61|
1,0,39|
1,1,1.4|
1,2,55|
2,0,18|
2,1,84|
2,2,53|
];
constraint_x9_x5=[
0,0,86|
0,1,40|
0,2,42|
1,0,95|
1,1,70|
1,2,75|
2,0,25|
2,1,72|
2,2,79|
];
constraint_x9_x8=[
0,0,9|
0,1,81|
0,2,33|
1,0,70|
1,1,56|
1,2,95|
2,0,28|
2,1,87|
2,2,19|
];
constraint_x10_x1=[
0,0,72|
0,1,80|
0,2,63|
1,0,13|
1,1,65|
1,2,46|
2,0,99|
2,1,56|
2,2,96|
];
constraint_x10_x2=[
0,0,55|
0,1,14|
0,2,52|
1,0,52|
1,1,79|
1,2,88|
2,0,89|
2,1,88|
2,2,3.9|
];
constraint_x10_x6=[
0,0,1.3|
0,1,26|
0,2,87|
1,0,78|
1,1,98|
1,2,74|
2,0,87|
2,1,84|
2,2,96|
];
constraint_x10_x8=[
0,0,6.8|
0,1,93|
0,2,18|
1,0,89|
1,1,23|
1,2,53|
2,0,69|
2,1,83|
2,2,91|
];
constraint_x11_x1=[
0,0,49|
0,1,77|
0,2,27|
1,0,71|
1,1,22|
1,2,92|
2,0,52|
2,1,84|
2,2,88|
];
constraint_x11_x2=[
0,0,1e+02|
0,1,53|
0,2,66|
1,0,89|
1,1,26|
1,2,87|
2,0,14|
2,1,16|
2,2,26|
];
constraint_x11_x3=[
0,0,93|
0,1,86|
0,2,95|
1,0,51|
1,1,69|
1,2,25|
2,0,92|
2,1,72|
2,2,0.86|
];
constraint_x11_x6=[
0,0,59|
0,1,80|
0,2,24|
1,0,19|
1,1,76|
1,2,32|
2,0,59|
2,1,57|
2,2,39|
];
constraint_x11_x9=[
0,0,61|
0,1,53|
0,2,55|
1,0,76|
1,1,30|
1,2,21|
2,0,29|
2,1,15|
2,2,0.12|
];
constraint_x12_x2=[
0,0,20|
0,1,56|
0,2,21|
1,0,81|
1,1,51|
1,2,16|
2,0,97|
2,1,29|
2,2,1.2|
];
constraint_x12_x3=[
0,0,70|
0,1,18|
0,2,70|
1,0,99|
1,1,18|
1,2,92|
2,0,89|
2,1,35|
2,2,59|
];
constraint_x12_x4=[
0,0,35|
0,1,7.3|
0,2,41|
1,0,59|
1,1,50|
1,2,32|
2,0,90|
2,1,67|
2,2,34|
];
constraint_x12_x7=[
0,0,94|
0,1,46|
0,2,46|
1,0,12|
1,1,71|
1,2,47|
2,0,7.8|
2,1,97|
2,2,43|
];
constraint_x12_x8=[
0,0,54|
0,1,76|
0,2,18|
1,0,50|
1,1,19|
1,2,21|
2,0,84|
2,1,83|
2,2,10|
];
constraint_x12_x9=[
0,0,84|
0,1,80|
0,2,45|
1,0,78|
1,1,72|
1,2,42|
2,0,11|
2,1,67|
2,2,9.4|
];
constraint_x12_x10=[
0,0,1|
0,1,17|
0,2,77|
1,0,43|
1,1,39|
1,2,67|
2,0,53|
2,1,11|
2,2,17|
];
constraint_x12_x11=[
0,0,70|
0,1,96|
0,2,10|
1,0,85|
1,1,65|
1,2,58|
2,0,73|
2,1,98|
2,2,76|
];
constraint_x1_y1=[
0,0,60|
0,1,24|
0,2,7.1|
1,0,32|
1,1,17|
1,2,13|
2,0,96|
2,1,86|
2,2,5.3|
];
constraint_x2_y2=[
0,0,83|
0,1,31|
0,2,81|
1,0,61|
1,1,45|
1,2,40|
2,0,5.4|
2,1,62|
2,2,53|
];
constraint_x3_y3=[
0,0,0.56|
0,1,98|
0,2,67|
1,0,88|
1,1,68|
1,2,54|
2,0,7.7|
2,1,66|
2,2,96|
];
constraint_x4_y4=[
0,0,92|
0,1,22|
0,2,62|
1,0,16|
1,1,90|
1,2,20|
2,0,79|
2,1,44|
2,2,37|
];
constraint_x5_y5=[
0,0,36|
0,1,86|
0,2,6.9|
1,0,5.4|
1,1,56|
1,2,46|
2,0,32|
2,1,22|
2,2,41|
];
constraint_x6_y6=[
0,0,36|
0,1,36|
0,2,39|
1,0,59|
1,1,85|
1,2,82|
2,0,32|
2,1,96|
2,2,86|
];
constraint_x7_y7=[
0,0,81|
0,1,6.2|
0,2,84|
1,0,57|
1,1,51|
1,2,5.7|
2,0,90|
2,1,58|
2,2,56|
];
constraint_x8_y8=[
0,0,59|
0,1,92|
0,2,65|
1,0,77|
1,1,90|
1,2,84|
2,0,70|
2,1,50|
2,2,92|
];
constraint_x9_y9=[
0,0,74|
0,1,22|
0,2,45|
1,0,8.1|
1,1,86|
1,2,93|
2,0,36|
2,1,14|
2,2,7.2|
];
constraint_x10_y10=[
0,0,36|
0,1,81|
0,2,68|
1,0,24|
1,1,32|
1,2,68|
2,0,91|
2,1,90|
2,2,53|
];
constraint_x11_y11=[
0,0,0.92|
0,1,39|
0,2,21|
1,0,34|
1,1,32|
1,2,33|
2,0,14|
2,1,41|
2,2,44|
];
constraint_x12_y12=[
0,0,40|
0,1,98|
0,2,83|
1,0,41|
1,1,47|
1,2,17|
2,0,31|
2,1,59|
2,2,25|
];
initial_distribution_y1=[0.44,0.45,0.11];
initial_distribution_y2=[0.26,0.41,0.34];
initial_distribution_y3=[0.18,0.47,0.34];
initial_distribution_y4=[0.11,0.22,0.66];
initial_distribution_y5=[0.1,0.38,0.52];
initial_distribution_y6=[0.55,0.27,0.18];
initial_distribution_y7=[0.6,0.37,0.026];
initial_distribution_y8=[0.17,0.76,0.063];
initial_distribution_y9=[0.12,0.39,0.49];
initial_distribution_y10=[0.36,0.24,0.39];
initial_distribution_y11=[0.56,0.41,0.034];
initial_distribution_y12=[0.26,0.19,0.55];
transition_y1=[
0.095,0.51,0.39|
0.33,0.47,0.2|
0.051,0.29,0.66|
];
transition_y2=[
0.34,0.48,0.19|
0.43,0.21,0.36|
0.5,0.078,0.43|
];
transition_y3=[
0.26,0.5,0.24|
0.42,0.47,0.12|
0.31,0.39,0.3|
];
transition_y4=[
0.47,0.16,0.37|
0.31,0.34,0.35|
0.35,0.37,0.28|
];
transition_y5=[
0.38,0.32,0.31|
0.32,0.53,0.15|
0.29,0.33,0.38|
];
transition_y6=[
0.077,0.64,0.29|
0.057,0.48,0.47|
0.089,0.38,0.53|
];
transition_y7=[
0.011,0.4,0.59|
0.11,0.26,0.62|
0.31,0.17,0.52|
];
transition_y8=[
0.57,0.21,0.22|
0.6,0.14,0.26|
0.26,0.27,0.47|
];
transition_y9=[
0.022,0.69,0.29|
0.48,0.15,0.37|
0.18,0.41,0.41|
];
transition_y10=[
0.29,0.27,0.44|
0.18,0.51,0.31|
0.49,0.24,0.27|
];
transition_y11=[
0.066,0.63,0.3|
0.23,0.4,0.37|
0.43,0.11,0.46|
];
transition_y12=[
0.35,0.23,0.42|
0.58,0.38,0.039|
0.31,0.36,0.34|
];
